p gcnf 86 183 20
{1} 1 0
{2} 2 0
{3} 3 0
{4} 4 0
{5} 5 0
{6} 6 0
{7} 7 0
{8} 8 0
{9} 9 0
{10} 10 0
{11} 11 0
{12} 12 0
{13} 13 0
{14} 14 0
{15} 15 0
{16} 16 0
{17} 17 0
{18} 18 0
{19} 19 0
{20} 20 0
{0} -34 24 36 0
{0} -35 25 36 0
{0} -29 24 36 0
{0} -30 25 36 0
{0} -29 -34 25 36 0
{0} -29 -35 36 0
{0} -30 -34 36 0
{0} -30 -35 24 0
{0} -36 21 0
{0} -31 21 0
{0} -36 -31 22 0
{0} -32 22 0
{0} -36 -32 23 0
{0} -33 23 0
{0} -36 -33 0
{0} -26 21 0
{0} -36 -26 22 0
{0} -27 22 0
{0} -36 -27 23 0
{0} -28 23 0
{0} -36 -28 0
{0} -26 -31 22 0
{0} -36 -26 -31 23 0
{0} -26 -32 23 0
{0} -36 -26 -32 0
{0} -26 -33 0
{0} -36 -26 -33 0
{0} -27 -31 23 0
{0} -36 -27 -31 0
{0} -27 -32 0
{0} -36 -27 -32 0
{0} -27 -33 0
{0} -36 -27 -33 0
{0} -28 -31 0
{0} -36 -28 -31 0
{0} -28 -32 0
{0} -36 -28 -32 0
{0} -28 -33 0
{0} -36 -28 -33 0
{0} -41 34 43 0
{0} -42 35 43 0
{0} -38 34 43 0
{0} -39 35 43 0
{0} -38 -41 35 43 0
{0} -38 -42 43 0
{0} -39 -41 43 0
{0} -39 -42 34 0
{0} -43 31 0
{0} -40 31 0
{0} -43 -40 32 0
{0} -37 31 0
{0} -43 -37 32 0
{0} -37 -40 32 0
{0} -43 -37 -40 33 0
{0} -20 47 0
{0} -19 47 0
{0} -19 -20 48 0
{0} -47 41 49 0
{0} -48 42 49 0
{0} -45 41 49 0
{0} -46 42 49 0
{0} -45 -47 42 49 0
{0} -45 -48 49 0
{0} -46 -47 49 0
{0} -46 -48 41 0
{0} -49 40 0
{0} -44 40 0
{0} -49 -44 0
{0} -17 50 0
{0} -16 50 0
{0} -16 -17 51 0
{0} -18 45 52 0
{0} -50 45 52 0
{0} -51 46 52 0
{0} -50 -18 46 52 0
{0} -51 -18 52 0
{0} -52 44 0
{0} -15 56 0
{0} -14 56 0
{0} -14 -15 57 0
{0} -56 38 58 0
{0} -57 39 58 0
{0} -54 38 58 0
{0} -55 39 58 0
{0} -54 -56 39 58 0
{0} -54 -57 58 0
{0} -55 -56 58 0
{0} -55 -57 38 0
{0} -58 37 0
{0} -53 37 0
{0} -58 -53 0
{0} -12 59 0
{0} -11 59 0
{0} -11 -12 60 0
{0} -13 54 61 0
{0} -59 54 61 0
{0} -60 55 61 0
{0} -59 -13 55 61 0
{0} -60 -13 61 0
{0} -61 53 0
{0} -66 29 68 0
{0} -67 30 68 0
{0} -63 29 68 0
{0} -64 30 68 0
{0} -63 -66 30 68 0
{0} -63 -67 68 0
{0} -64 -66 68 0
{0} -64 -67 29 0
{0} -68 26 0
{0} -65 26 0
{0} -68 -65 27 0
{0} -62 26 0
{0} -68 -62 27 0
{0} -62 -65 27 0
{0} -68 -62 -65 28 0
{0} -10 72 0
{0} -9 72 0
{0} -9 -10 73 0
{0} -72 66 74 0
{0} -73 67 74 0
{0} -70 66 74 0
{0} -71 67 74 0
{0} -70 -72 67 74 0
{0} -70 -73 74 0
{0} -71 -72 74 0
{0} -71 -73 66 0
{0} -74 65 0
{0} -69 65 0
{0} -74 -69 0
{0} -7 75 0
{0} -6 75 0
{0} -6 -7 76 0
{0} -8 70 77 0
{0} -75 70 77 0
{0} -76 71 77 0
{0} -75 -8 71 77 0
{0} -76 -8 77 0
{0} -77 69 0
{0} -5 81 0
{0} -4 81 0
{0} -4 -5 82 0
{0} -81 63 83 0
{0} -82 64 83 0
{0} -79 63 83 0
{0} -80 64 83 0
{0} -79 -81 64 83 0
{0} -79 -82 83 0
{0} -80 -81 83 0
{0} -80 -82 63 0
{0} -83 62 0
{0} -78 62 0
{0} -83 -78 0
{0} -2 84 0
{0} -1 84 0
{0} -1 -2 85 0
{0} -3 79 86 0
{0} -84 79 86 0
{0} -85 80 86 0
{0} -84 -3 80 86 0
{0} -85 -3 86 0
{0} -86 78 0
{0} -23 -24 0
{0} -23 -25 0
